files/upTests/_partition/foo/0001.eprime.solution
language ESSENCE' 1.0
$ minion Nodes: 31
$ minion TotalTime: 0.004015
$ Savile Row TotalTime: 0.456
letting p_MSetOfSets_MSetExplicit_SetOccurrence be [[false, false, false, false, false, false, false, false, false, false;int(0..9)], 
[false, false, false, false, false, false, false, false, false, false;int(0..9)], 
[true, true, true, true, true, true, true, true, true, true;int(0..9)];int(1..3)]
letting s_SetOccurrence be [false, false, false, false, false, false, false, false, false, false;int(0..9)]
